============================[ Problem Statistics ]=============================|                                                                             ||  Number of variables:          4242                                         ||  Number of clauses:            9805                                         ||  Parse time:                   0.21 s                                       ||                                                                             |============================[ Search Statistics ]==============================| Conflicts |          ORIGINAL         |          LEARNT          | Progress ||           |    Vars  Clauses Literals |    Limit  Clauses Lit/Cl |          |===============================================================================|       100 |    1591     6010   309311 |     2203      100     53 | 62.501 % |===============================================================================restarts              : 2conflicts             : 122            (349 /sec)decisions             : 292            (0.00 % random) (834 /sec)propagations          : 9896           (28274 /sec)conflict literals     : 7220           (95.67 % deleted)CPU time              : 0.35 sSATISFIABLE